(declare-fun ExpandObjSwitcher () Real)
(declare-fun CreateAsClass () Bool)
(declare-fun ExpandObjSwitcher_2 () Real)
(declare-fun Constructed_Argument_t () String)
(assert (= ExpandObjSwitcher 8.0))
(assert (not CreateAsClass))
(assert (= ExpandObjSwitcher_2 1.0))
(assert (not (= Constructed_Argument_t "string")))
(assert (= Constructed_Argument_t "number"))
(check-sat)
